instances/knapsack/discrete/knapsack_90_3.lp
\ Model knapsack_90_3
\ LP format - for model browsing. Use MPS format to capture full model detail.
\ Signature: 0xc29ff4c0dcb79651
Minimize
  - 72 x[0] - 81 x[1] - 54 x[2] - 38 x[3] - 44 x[4] - 7 x[5] - 92 x[6]
   - 82 x[7] - 45 x[8] - 5 x[9] - 41 x[10] - 17 x[11] - 89 x[12] - 56 x[13]
   - 37 x[14] - 78 x[15] - 76 x[16] - 44 x[17] - 17 x[18] - 68 x[19]
   - 20 x[20] - 65 x[21] - 86 x[22] - 66 x[23] - 59 x[24] - 73 x[25]
   - 6 x[26] - 42 x[27] - 68 x[28] - 31 x[29] - 3 x[30] - 70 x[31]
   - 2 x[32] - 25 x[33] - 94 x[34] - 3 x[35] - 91 x[36] - 41 x[37]
   - 93 x[38] - 74 x[39] - 26 x[40] - 84 x[41] - 36 x[42] - 9 x[43]
   - 9 x[44] - 61 x[45] - 51 x[46] - 91 x[47] - 3 x[48] - 76 x[49]
   - 5 x[50] - 77 x[51] - x[52] - 99 x[53] - 74 x[54] - 72 x[55] - 85 x[56]
   - 30 x[57] - 6 x[58] - 37 x[59] - 58 x[60] - 60 x[61] - 88 x[62]
   - 52 x[63] - x[64] - 3 x[65] - 23 x[66] - 36 x[67] - 23 x[68] - 56 x[69]
   - 43 x[70] - 85 x[71] - 31 x[72] - 52 x[73] - 29 x[74] - 60 x[75]
   - 32 x[76] - 35 x[77] - 58 x[78] - 6 x[79] - 57 x[80] - 52 x[81]
   - 48 x[82] - 52 x[83] - 75 x[84] - 95 x[85] - 100 x[86] - 61 x[87]
   - 94 x[88] - 85 x[89]
Subject To
 primal_upper: 42 x[0] + 62 x[1] + 72 x[2] + 37 x[3] + 86 x[4] + 12 x[5]
   + 43 x[6] + 34 x[7] + 55 x[8] + 32 x[9] + 42 x[10] + 17 x[11] + 50 x[12]
   + 70 x[13] + 71 x[14] + 99 x[15] + 99 x[16] + 46 x[17] + 79 x[18]
   + 32 x[19] + 75 x[20] + 74 x[21] + 14 x[22] + 9 x[23] + 55 x[24]
   + 50 x[25] + 76 x[26] + 82 x[27] + 24 x[28] + 25 x[29] + 88 x[30]
   + 54 x[31] + 22 x[32] + 11 x[33] + 74 x[34] + 7 x[35] + 94 x[36]
   + 3 x[37] + 38 x[38] + 65 x[39] + 93 x[40] + 28 x[41] + 12 x[42]
   + 4 x[43] + 65 x[44] + 57 x[45] + 28 x[46] + 40 x[47] + 49 x[48]
   + 82 x[49] + 73 x[50] + 98 x[51] + 63 x[52] + 46 x[53] + 83 x[54]
   + 58 x[55] + 79 x[56] + 5 x[57] + 98 x[58] + 100 x[59] + 27 x[60]
   + 17 x[61] + 38 x[62] + 93 x[63] + 46 x[64] + 90 x[65] + 59 x[66]
   + 17 x[67] + 34 x[68] + 96 x[69] + 96 x[70] + 56 x[71] + 80 x[72]
   + 85 x[73] + 78 x[74] + 3 x[75] + 81 x[76] + 45 x[77] + 43 x[78]
   + 81 x[79] + 32 x[80] + 68 x[81] + 25 x[82] + 20 x[83] + 72 x[84]
   + 40 x[85] + 10 x[86] + 70 x[87] + 4 x[88] + 89 x[89] + 4.2 r[0]
   + 6.2 r[1] + 7.2 r[2] + 3.7 r[3] + 8.6 r[4] + 1.2 r[5] + 4.3 r[6]
   + 3.4 r[7] + 5.5 r[8] + 3.2 r[9] + 4.2 r[10] + 1.7 r[11] + 5 r[12]
   + 7 r[13] + 7.1 r[14] + 9.9 r[15] + 9.9 r[16] + 4.6 r[17] + 7.9 r[18]
   + 3.2 r[19] + 7.5 r[20] + 7.4 r[21] + 1.4 r[22] + 0.9 r[23] + 5.5 r[24]
   + 5 r[25] + 7.6 r[26] + 8.2 r[27] + 2.4 r[28] + 2.5 r[29] + 8.8 r[30]
   + 5.4 r[31] + 2.2 r[32] + 1.1 r[33] + 7.4 r[34] + 0.7 r[35] + 9.4 r[36]
   + 0.3 r[37] + 3.8 r[38] + 6.5 r[39] + 9.3 r[40] + 2.8 r[41] + 1.2 r[42]
   + 0.4 r[43] + 6.5 r[44] + 5.7 r[45] + 2.8 r[46] + 4 r[47] + 4.9 r[48]
   + 8.2 r[49] + 7.3 r[50] + 9.8 r[51] + 6.3 r[52] + 4.6 r[53] + 8.3 r[54]
   + 5.8 r[55] + 7.9 r[56] + 0.5 r[57] + 9.8 r[58] + 10 r[59] + 2.7 r[60]
   + 1.7 r[61] + 3.8 r[62] + 9.3 r[63] + 4.6 r[64] + 9 r[65] + 5.9 r[66]
   + 1.7 r[67] + 3.4 r[68] + 9.6 r[69] + 9.6 r[70] + 5.6 r[71] + 8 r[72]
   + 8.5 r[73] + 7.8 r[74] + 0.3 r[75] + 8.1 r[76] + 4.5 r[77] + 4.3 r[78]
   + 8.1 r[79] + 3.2 r[80] + 6.8 r[81] + 2.5 r[82] + 2 r[83] + 7.2 r[84]
   + 4 r[85] + r[86] + 7 r[87] + 0.4 r[88] + 8.9 r[89] <= 454
 primal_lower: 0.1697169048207717 x[0] + 3.751168581475734 x[1]
   + 0.2096405327261179 x[2] + 1.498038341625357 x[3]
   + 1.925197228311702 x[4] + 2.387933357549487 x[5]
   + 0.4767378798746512 x[6] + 1.850162169921111 x[7]
   + 3.810479599066322 x[8] + 0.5279957535601426 x[9]
   + 2.212313431402996 x[10] + 2.586448261873285 x[11]
   + 0.9645497296889154 x[12] + 0.4423788295498736 x[13]
   + 3.500637934917501 x[14] + 0.2364248846231941 x[15]
   + 0.6629297853665612 x[16] + 1.251045450139905 x[17]
   + 1.968039248157421 x[18] + 3.98420696866744 x[19]
   + 2.214347152747317 x[20] + 0.3294418905675643 x[21]
   + 1.081859810007937 x[22] + 3.440303134126855 x[23]
   + 0.4114767526225507 x[24] + 1.761396942543587 x[25]
   + 2.636516037400679 x[26] + 1.26029456013463 x[27]
   + 3.055868708552789 x[28] + 3.305560910389957 x[29]
   + 3.517334077865471 x[30] + 1.666368134645177 x[31]
   + 0.0987537712561148 x[32] + 3.162744140267609 x[33]
   + 3.264955841784272 x[34] + 2.851865467148027 x[35]
   + 3.365532785076332 x[36] + 3.713524626144384 x[37]
   + 3.36505425207898 x[38] + 2.213768473066389 x[39]
   + 0.00956167037254766 x[40] + 3.291300340329542 x[41]
   + 3.933115064873496 x[42] + 1.986933458292935 x[43]
   + 4.001842553347321 x[44] + 0.0804474994930377 x[45]
   + 0.5306510260112622 x[46] + 1.222847537123148 x[47]
   + 0.8593642326258581 x[48] + 1.611454779025612 x[49]
   + 3.603463079578864 x[50] + 1.519464025818323 x[51]
   + 3.343817846959151 x[52] + 1.927863112269789 x[53]
   + 3.311235822152758 x[54] + 0.0805294409465769 x[55]
   + 3.260408786773094 x[56] + 3.415725928220251 x[57]
   + 1.32584471274449 x[58] + 2.805900350340804 x[59]
   + 3.584684082027774 x[60] + 1.76569587166984 x[61]
   + 1.805279413300829 x[62] + 1.519680773638805 x[63]
   + 2.05995840468658 x[64] + 3.203751303882088 x[65]
   + 4.101235509380543 x[66] + 1.286938122954626 x[67]
   + 0.5386052724162514 x[68] + 3.74960484192955 x[69]
   + 3.221242632096898 x[70] + 3.669729591043998 x[71]
   + 1.604647888940884 x[72] + 3.076130440009626 x[73]
   + 0.720374526025812 x[74] + 1.910995187471584 x[75]
   + 0.9585549682499719 x[76] + 3.754562245152222 x[77]
   + 2.059105522246115 x[78] + 2.817491572768731 x[79]
   + 2.141492830083681 x[80] + 0.5033430037852044 x[81]
   + 3.839867635743734 x[82] + 2.171006221221774 x[83]
   + 1.649221914663672 x[84] + 1.115617453965171 x[85]
   + 3.557201524251711 x[86] + 1.476442360962041 x[87]
   + 0.2517982486820923 x[88] + 3.811764694460548 x[89] + 25 u[0] + 30 u[1]
   + 40 u[2] + u[3] + 74 u[4] + 15 u[5] + 55 u[6] + 85 u[7] + 31 u[8]
   + 36 u[9] + 9 u[10] + 25 u[11] + 10 u[12] + 90 u[13] + 74 u[14]
   + 78 u[15] + 27 u[16] + 58 u[17] + 15 u[18] + 12 u[19] + 51 u[20]
   + 9 u[21] + 14 u[22] + 96 u[23] + 78 u[24] + 2 u[25] + 84 u[26]
   + 29 u[27] + 47 u[28] + 5 u[29] + 55 u[30] + 57 u[31] + 37 u[32]
   + 19 u[33] + 2 u[34] + 47 u[35] + 22 u[36] + 90 u[37] + 78 u[38]
   + 4 u[39] + 57 u[40] + 79 u[41] + 60 u[42] + 83 u[43] + 17 u[44]
   + 88 u[45] + 11 u[46] + 15 u[47] + u[48] + 90 u[49] + 60 u[50]
   + 26 u[51] + 47 u[52] + 46 u[53] + 2 u[54] + 9 u[55] + 15 u[56]
   + 20 u[57] + 62 u[58] + 64 u[59] + 38 u[60] + 4 u[61] + 5 u[62]
   + 52 u[63] + 45 u[64] + 66 u[65] + 82 u[66] + 28 u[67] + 98 u[68]
   + 35 u[69] + 63 u[70] + 87 u[71] + 4 u[72] + 53 u[73] + 45 u[74]
   + 90 u[75] + 68 u[76] + 41 u[77] + 10 u[78] + 88 u[79] + 79 u[80]
   + 63 u[81] + 28 u[82] + 27 u[83] + 75 u[84] + 11 u[85] + 73 u[86]
   + 6 u[87] + 36 u[88] + 41 u[89] <= 35825
 mccormick1[0]: - u[0] + r[0] <= 0
 mccormick1[1]: - u[1] + r[1] <= 0
 mccormick1[2]: - u[2] + r[2] <= 0
 mccormick1[3]: - u[3] + r[3] <= 0
 mccormick1[4]: - u[4] + r[4] <= 0
 mccormick1[5]: - u[5] + r[5] <= 0
 mccormick1[6]: - u[6] + r[6] <= 0
 mccormick1[7]: - u[7] + r[7] <= 0
 mccormick1[8]: - u[8] + r[8] <= 0
 mccormick1[9]: - u[9] + r[9] <= 0
 mccormick1[10]: - u[10] + r[10] <= 0
 mccormick1[11]: - u[11] + r[11] <= 0
 mccormick1[12]: - u[12] + r[12] <= 0
 mccormick1[13]: - u[13] + r[13] <= 0
 mccormick1[14]: - u[14] + r[14] <= 0
 mccormick1[15]: - u[15] + r[15] <= 0
 mccormick1[16]: - u[16] + r[16] <= 0
 mccormick1[17]: - u[17] + r[17] <= 0
 mccormick1[18]: - u[18] + r[18] <= 0
 mccormick1[19]: - u[19] + r[19] <= 0
 mccormick1[20]: - u[20] + r[20] <= 0
 mccormick1[21]: - u[21] + r[21] <= 0
 mccormick1[22]: - u[22] + r[22] <= 0
 mccormick1[23]: - u[23] + r[23] <= 0
 mccormick1[24]: - u[24] + r[24] <= 0
 mccormick1[25]: - u[25] + r[25] <= 0
 mccormick1[26]: - u[26] + r[26] <= 0
 mccormick1[27]: - u[27] + r[27] <= 0
 mccormick1[28]: - u[28] + r[28] <= 0
 mccormick1[29]: - u[29] + r[29] <= 0
 mccormick1[30]: - u[30] + r[30] <= 0
 mccormick1[31]: - u[31] + r[31] <= 0
 mccormick1[32]: - u[32] + r[32] <= 0
 mccormick1[33]: - u[33] + r[33] <= 0
 mccormick1[34]: - u[34] + r[34] <= 0
 mccormick1[35]: - u[35] + r[35] <= 0
 mccormick1[36]: - u[36] + r[36] <= 0
 mccormick1[37]: - u[37] + r[37] <= 0
 mccormick1[38]: - u[38] + r[38] <= 0
 mccormick1[39]: - u[39] + r[39] <= 0
 mccormick1[40]: - u[40] + r[40] <= 0
 mccormick1[41]: - u[41] + r[41] <= 0
 mccormick1[42]: - u[42] + r[42] <= 0
 mccormick1[43]: - u[43] + r[43] <= 0
 mccormick1[44]: - u[44] + r[44] <= 0
 mccormick1[45]: - u[45] + r[45] <= 0
 mccormick1[46]: - u[46] + r[46] <= 0
 mccormick1[47]: - u[47] + r[47] <= 0
 mccormick1[48]: - u[48] + r[48] <= 0
 mccormick1[49]: - u[49] + r[49] <= 0
 mccormick1[50]: - u[50] + r[50] <= 0
 mccormick1[51]: - u[51] + r[51] <= 0
 mccormick1[52]: - u[52] + r[52] <= 0
 mccormick1[53]: - u[53] + r[53] <= 0
 mccormick1[54]: - u[54] + r[54] <= 0
 mccormick1[55]: - u[55] + r[55] <= 0
 mccormick1[56]: - u[56] + r[56] <= 0
 mccormick1[57]: - u[57] + r[57] <= 0
 mccormick1[58]: - u[58] + r[58] <= 0
 mccormick1[59]: - u[59] + r[59] <= 0
 mccormick1[60]: - u[60] + r[60] <= 0
 mccormick1[61]: - u[61] + r[61] <= 0
 mccormick1[62]: - u[62] + r[62] <= 0
 mccormick1[63]: - u[63] + r[63] <= 0
 mccormick1[64]: - u[64] + r[64] <= 0
 mccormick1[65]: - u[65] + r[65] <= 0
 mccormick1[66]: - u[66] + r[66] <= 0
 mccormick1[67]: - u[67] + r[67] <= 0
 mccormick1[68]: - u[68] + r[68] <= 0
 mccormick1[69]: - u[69] + r[69] <= 0
 mccormick1[70]: - u[70] + r[70] <= 0
 mccormick1[71]: - u[71] + r[71] <= 0
 mccormick1[72]: - u[72] + r[72] <= 0
 mccormick1[73]: - u[73] + r[73] <= 0
 mccormick1[74]: - u[74] + r[74] <= 0
 mccormick1[75]: - u[75] + r[75] <= 0
 mccormick1[76]: - u[76] + r[76] <= 0
 mccormick1[77]: - u[77] + r[77] <= 0
 mccormick1[78]: - u[78] + r[78] <= 0
 mccormick1[79]: - u[79] + r[79] <= 0
 mccormick1[80]: - u[80] + r[80] <= 0
 mccormick1[81]: - u[81] + r[81] <= 0
 mccormick1[82]: - u[82] + r[82] <= 0
 mccormick1[83]: - u[83] + r[83] <= 0
 mccormick1[84]: - u[84] + r[84] <= 0
 mccormick1[85]: - u[85] + r[85] <= 0
 mccormick1[86]: - u[86] + r[86] <= 0
 mccormick1[87]: - u[87] + r[87] <= 0
 mccormick1[88]: - u[88] + r[88] <= 0
 mccormick1[89]: - u[89] + r[89] <= 0
 mccormick2[0]: - x[0] + r[0] <= 0
 mccormick2[1]: - x[1] + r[1] <= 0
 mccormick2[2]: - x[2] + r[2] <= 0
 mccormick2[3]: - x[3] + r[3] <= 0
 mccormick2[4]: - x[4] + r[4] <= 0
 mccormick2[5]: - x[5] + r[5] <= 0
 mccormick2[6]: - x[6] + r[6] <= 0
 mccormick2[7]: - x[7] + r[7] <= 0
 mccormick2[8]: - x[8] + r[8] <= 0
 mccormick2[9]: - x[9] + r[9] <= 0
 mccormick2[10]: - x[10] + r[10] <= 0
 mccormick2[11]: - x[11] + r[11] <= 0
 mccormick2[12]: - x[12] + r[12] <= 0
 mccormick2[13]: - x[13] + r[13] <= 0
 mccormick2[14]: - x[14] + r[14] <= 0
 mccormick2[15]: - x[15] + r[15] <= 0
 mccormick2[16]: - x[16] + r[16] <= 0
 mccormick2[17]: - x[17] + r[17] <= 0
 mccormick2[18]: - x[18] + r[18] <= 0
 mccormick2[19]: - x[19] + r[19] <= 0
 mccormick2[20]: - x[20] + r[20] <= 0
 mccormick2[21]: - x[21] + r[21] <= 0
 mccormick2[22]: - x[22] + r[22] <= 0
 mccormick2[23]: - x[23] + r[23] <= 0
 mccormick2[24]: - x[24] + r[24] <= 0
 mccormick2[25]: - x[25] + r[25] <= 0
 mccormick2[26]: - x[26] + r[26] <= 0
 mccormick2[27]: - x[27] + r[27] <= 0
 mccormick2[28]: - x[28] + r[28] <= 0
 mccormick2[29]: - x[29] + r[29] <= 0
 mccormick2[30]: - x[30] + r[30] <= 0
 mccormick2[31]: - x[31] + r[31] <= 0
 mccormick2[32]: - x[32] + r[32] <= 0
 mccormick2[33]: - x[33] + r[33] <= 0
 mccormick2[34]: - x[34] + r[34] <= 0
 mccormick2[35]: - x[35] + r[35] <= 0
 mccormick2[36]: - x[36] + r[36] <= 0
 mccormick2[37]: - x[37] + r[37] <= 0
 mccormick2[38]: - x[38] + r[38] <= 0
 mccormick2[39]: - x[39] + r[39] <= 0
 mccormick2[40]: - x[40] + r[40] <= 0
 mccormick2[41]: - x[41] + r[41] <= 0
 mccormick2[42]: - x[42] + r[42] <= 0
 mccormick2[43]: - x[43] + r[43] <= 0
 mccormick2[44]: - x[44] + r[44] <= 0
 mccormick2[45]: - x[45] + r[45] <= 0
 mccormick2[46]: - x[46] + r[46] <= 0
 mccormick2[47]: - x[47] + r[47] <= 0
 mccormick2[48]: - x[48] + r[48] <= 0
 mccormick2[49]: - x[49] + r[49] <= 0
 mccormick2[50]: - x[50] + r[50] <= 0
 mccormick2[51]: - x[51] + r[51] <= 0
 mccormick2[52]: - x[52] + r[52] <= 0
 mccormick2[53]: - x[53] + r[53] <= 0
 mccormick2[54]: - x[54] + r[54] <= 0
 mccormick2[55]: - x[55] + r[55] <= 0
 mccormick2[56]: - x[56] + r[56] <= 0
 mccormick2[57]: - x[57] + r[57] <= 0
 mccormick2[58]: - x[58] + r[58] <= 0
 mccormick2[59]: - x[59] + r[59] <= 0
 mccormick2[60]: - x[60] + r[60] <= 0
 mccormick2[61]: - x[61] + r[61] <= 0
 mccormick2[62]: - x[62] + r[62] <= 0
 mccormick2[63]: - x[63] + r[63] <= 0
 mccormick2[64]: - x[64] + r[64] <= 0
 mccormick2[65]: - x[65] + r[65] <= 0
 mccormick2[66]: - x[66] + r[66] <= 0
 mccormick2[67]: - x[67] + r[67] <= 0
 mccormick2[68]: - x[68] + r[68] <= 0
 mccormick2[69]: - x[69] + r[69] <= 0
 mccormick2[70]: - x[70] + r[70] <= 0
 mccormick2[71]: - x[71] + r[71] <= 0
 mccormick2[72]: - x[72] + r[72] <= 0
 mccormick2[73]: - x[73] + r[73] <= 0
 mccormick2[74]: - x[74] + r[74] <= 0
 mccormick2[75]: - x[75] + r[75] <= 0
 mccormick2[76]: - x[76] + r[76] <= 0
 mccormick2[77]: - x[77] + r[77] <= 0
 mccormick2[78]: - x[78] + r[78] <= 0
 mccormick2[79]: - x[79] + r[79] <= 0
 mccormick2[80]: - x[80] + r[80] <= 0
 mccormick2[81]: - x[81] + r[81] <= 0
 mccormick2[82]: - x[82] + r[82] <= 0
 mccormick2[83]: - x[83] + r[83] <= 0
 mccormick2[84]: - x[84] + r[84] <= 0
 mccormick2[85]: - x[85] + r[85] <= 0
 mccormick2[86]: - x[86] + r[86] <= 0
 mccormick2[87]: - x[87] + r[87] <= 0
 mccormick2[88]: - x[88] + r[88] <= 0
 mccormick2[89]: - x[89] + r[89] <= 0
 mccormick3[0]: x[0] + u[0] - r[0] <= 1
 mccormick3[1]: x[1] + u[1] - r[1] <= 1
 mccormick3[2]: x[2] + u[2] - r[2] <= 1
 mccormick3[3]: x[3] + u[3] - r[3] <= 1
 mccormick3[4]: x[4] + u[4] - r[4] <= 1
 mccormick3[5]: x[5] + u[5] - r[5] <= 1
 mccormick3[6]: x[6] + u[6] - r[6] <= 1
 mccormick3[7]: x[7] + u[7] - r[7] <= 1
 mccormick3[8]: x[8] + u[8] - r[8] <= 1
 mccormick3[9]: x[9] + u[9] - r[9] <= 1
 mccormick3[10]: x[10] + u[10] - r[10] <= 1
 mccormick3[11]: x[11] + u[11] - r[11] <= 1
 mccormick3[12]: x[12] + u[12] - r[12] <= 1
 mccormick3[13]: x[13] + u[13] - r[13] <= 1
 mccormick3[14]: x[14] + u[14] - r[14] <= 1
 mccormick3[15]: x[15] + u[15] - r[15] <= 1
 mccormick3[16]: x[16] + u[16] - r[16] <= 1
 mccormick3[17]: x[17] + u[17] - r[17] <= 1
 mccormick3[18]: x[18] + u[18] - r[18] <= 1
 mccormick3[19]: x[19] + u[19] - r[19] <= 1
 mccormick3[20]: x[20] + u[20] - r[20] <= 1
 mccormick3[21]: x[21] + u[21] - r[21] <= 1
 mccormick3[22]: x[22] + u[22] - r[22] <= 1
 mccormick3[23]: x[23] + u[23] - r[23] <= 1
 mccormick3[24]: x[24] + u[24] - r[24] <= 1
 mccormick3[25]: x[25] + u[25] - r[25] <= 1
 mccormick3[26]: x[26] + u[26] - r[26] <= 1
 mccormick3[27]: x[27] + u[27] - r[27] <= 1
 mccormick3[28]: x[28] + u[28] - r[28] <= 1
 mccormick3[29]: x[29] + u[29] - r[29] <= 1
 mccormick3[30]: x[30] + u[30] - r[30] <= 1
 mccormick3[31]: x[31] + u[31] - r[31] <= 1
 mccormick3[32]: x[32] + u[32] - r[32] <= 1
 mccormick3[33]: x[33] + u[33] - r[33] <= 1
 mccormick3[34]: x[34] + u[34] - r[34] <= 1
 mccormick3[35]: x[35] + u[35] - r[35] <= 1
 mccormick3[36]: x[36] + u[36] - r[36] <= 1
 mccormick3[37]: x[37] + u[37] - r[37] <= 1
 mccormick3[38]: x[38] + u[38] - r[38] <= 1
 mccormick3[39]: x[39] + u[39] - r[39] <= 1
 mccormick3[40]: x[40] + u[40] - r[40] <= 1
 mccormick3[41]: x[41] + u[41] - r[41] <= 1
 mccormick3[42]: x[42] + u[42] - r[42] <= 1
 mccormick3[43]: x[43] + u[43] - r[43] <= 1
 mccormick3[44]: x[44] + u[44] - r[44] <= 1
 mccormick3[45]: x[45] + u[45] - r[45] <= 1
 mccormick3[46]: x[46] + u[46] - r[46] <= 1
 mccormick3[47]: x[47] + u[47] - r[47] <= 1
 mccormick3[48]: x[48] + u[48] - r[48] <= 1
 mccormick3[49]: x[49] + u[49] - r[49] <= 1
 mccormick3[50]: x[50] + u[50] - r[50] <= 1
 mccormick3[51]: x[51] + u[51] - r[51] <= 1
 mccormick3[52]: x[52] + u[52] - r[52] <= 1
 mccormick3[53]: x[53] + u[53] - r[53] <= 1
 mccormick3[54]: x[54] + u[54] - r[54] <= 1
 mccormick3[55]: x[55] + u[55] - r[55] <= 1
 mccormick3[56]: x[56] + u[56] - r[56] <= 1
 mccormick3[57]: x[57] + u[57] - r[57] <= 1
 mccormick3[58]: x[58] + u[58] - r[58] <= 1
 mccormick3[59]: x[59] + u[59] - r[59] <= 1
 mccormick3[60]: x[60] + u[60] - r[60] <= 1
 mccormick3[61]: x[61] + u[61] - r[61] <= 1
 mccormick3[62]: x[62] + u[62] - r[62] <= 1
 mccormick3[63]: x[63] + u[63] - r[63] <= 1
 mccormick3[64]: x[64] + u[64] - r[64] <= 1
 mccormick3[65]: x[65] + u[65] - r[65] <= 1
 mccormick3[66]: x[66] + u[66] - r[66] <= 1
 mccormick3[67]: x[67] + u[67] - r[67] <= 1
 mccormick3[68]: x[68] + u[68] - r[68] <= 1
 mccormick3[69]: x[69] + u[69] - r[69] <= 1
 mccormick3[70]: x[70] + u[70] - r[70] <= 1
 mccormick3[71]: x[71] + u[71] - r[71] <= 1
 mccormick3[72]: x[72] + u[72] - r[72] <= 1
 mccormick3[73]: x[73] + u[73] - r[73] <= 1
 mccormick3[74]: x[74] + u[74] - r[74] <= 1
 mccormick3[75]: x[75] + u[75] - r[75] <= 1
 mccormick3[76]: x[76] + u[76] - r[76] <= 1
 mccormick3[77]: x[77] + u[77] - r[77] <= 1
 mccormick3[78]: x[78] + u[78] - r[78] <= 1
 mccormick3[79]: x[79] + u[79] - r[79] <= 1
 mccormick3[80]: x[80] + u[80] - r[80] <= 1
 mccormick3[81]: x[81] + u[81] - r[81] <= 1
 mccormick3[82]: x[82] + u[82] - r[82] <= 1
 mccormick3[83]: x[83] + u[83] - r[83] <= 1
 mccormick3[84]: x[84] + u[84] - r[84] <= 1
 mccormick3[85]: x[85] + u[85] - r[85] <= 1
 mccormick3[86]: x[86] + u[86] - r[86] <= 1
 mccormick3[87]: x[87] + u[87] - r[87] <= 1
 mccormick3[88]: x[88] + u[88] - r[88] <= 1
 mccormick3[89]: x[89] + u[89] - r[89] <= 1
Bounds
Binaries
 x[0] x[1] x[2] x[3] x[4] x[5] x[6] x[7] x[8] x[9] x[10] x[11] x[12] x[13]
 x[14] x[15] x[16] x[17] x[18] x[19] x[20] x[21] x[22] x[23] x[24] x[25]
 x[26] x[27] x[28] x[29] x[30] x[31] x[32] x[33] x[34] x[35] x[36] x[37]
 x[38] x[39] x[40] x[41] x[42] x[43] x[44] x[45] x[46] x[47] x[48] x[49]
 x[50] x[51] x[52] x[53] x[54] x[55] x[56] x[57] x[58] x[59] x[60] x[61]
 x[62] x[63] x[64] x[65] x[66] x[67] x[68] x[69] x[70] x[71] x[72] x[73]
 x[74] x[75] x[76] x[77] x[78] x[79] x[80] x[81] x[82] x[83] x[84] x[85]
 x[86] x[87] x[88] x[89] u[0] u[1] u[2] u[3] u[4] u[5] u[6] u[7] u[8] u[9]
 u[10] u[11] u[12] u[13] u[14] u[15] u[16] u[17] u[18] u[19] u[20] u[21]
 u[22] u[23] u[24] u[25] u[26] u[27] u[28] u[29] u[30] u[31] u[32] u[33]
 u[34] u[35] u[36] u[37] u[38] u[39] u[40] u[41] u[42] u[43] u[44] u[45]
 u[46] u[47] u[48] u[49] u[50] u[51] u[52] u[53] u[54] u[55] u[56] u[57]
 u[58] u[59] u[60] u[61] u[62] u[63] u[64] u[65] u[66] u[67] u[68] u[69]
 u[70] u[71] u[72] u[73] u[74] u[75] u[76] u[77] u[78] u[79] u[80] u[81]
 u[82] u[83] u[84] u[85] u[86] u[87] u[88] u[89] r[0] r[1] r[2] r[3] r[4]
 r[5] r[6] r[7] r[8] r[9] r[10] r[11] r[12] r[13] r[14] r[15] r[16] r[17]
 r[18] r[19] r[20] r[21] r[22] r[23] r[24] r[25] r[26] r[27] r[28] r[29]
 r[30] r[31] r[32] r[33] r[34] r[35] r[36] r[37] r[38] r[39] r[40] r[41]
 r[42] r[43] r[44] r[45] r[46] r[47] r[48] r[49] r[50] r[51] r[52] r[53]
 r[54] r[55] r[56] r[57] r[58] r[59] r[60] r[61] r[62] r[63] r[64] r[65]
 r[66] r[67] r[68] r[69] r[70] r[71] r[72] r[73] r[74] r[75] r[76] r[77]
 r[78] r[79] r[80] r[81] r[82] r[83] r[84] r[85] r[86] r[87] r[88] r[89]
End
