instances/knapsack/discrete_knapsack_uncertainty/knapsack_90_3.kp
6134
90
454

42 4.2 72
62 6.2 81
72 7.2 54
37 3.7 38
86 8.6 44
12 1.2 7
43 4.3 92
34 3.4 82
55 5.5 45
32 3.2 5
42 4.2 41
17 1.7 17
50 5.0 89
70 7.0 56
71 7.1 37
99 9.9 78
99 9.9 76
46 4.6 44
79 7.9 17
32 3.2 68
75 7.5 20
74 7.4 65
14 1.4 86
9 0.9 66
55 5.5 59
50 5.0 73
76 7.6 6
82 8.2 42
24 2.4 68
25 2.5 31
88 8.8 3
54 5.4 70
22 2.2 2
11 1.1 25
74 7.4 94
7 0.7 3
94 9.4 91
3 0.3 41
38 3.8 93
65 6.5 74
93 9.3 26
28 2.8 84
12 1.2 36
4 0.4 9
65 6.5 9
57 5.7 61
28 2.8 51
40 4.0 91
49 4.9 3
82 8.2 76
73 7.3 5
98 9.8 77
63 6.3 1
46 4.6 99
83 8.3 74
58 5.8 72
79 7.9 85
5 0.5 30
98 9.8 6
100 10.0 37
27 2.7 58
17 1.7 60
38 3.8 88
93 9.3 52
46 4.6 1
90 9.0 3
59 5.9 23
17 1.7 36
34 3.4 23
96 9.6 56
96 9.6 43
56 5.6 85
80 8.0 31
85 8.5 52
78 7.8 29
3 0.3 60
81 8.1 32
45 4.5 35
43 4.3 58
81 8.1 6
32 3.2 57
68 6.8 52
25 2.5 48
20 2.0 52
72 7.2 75
40 4.0 95
10 1.0 100
70 7.0 61
4 0.4 94
89 8.9 85

35825
372

[0.1697169048207717 3.7511685814757336 0.20964053272611785 1.4980383416253573 1.9251972283117018 2.3879333575494868 0.47673787987465116 1.8501621699211106 3.8104795990663223 0.5279957535601426 2.2123134314029955 2.5864482618732847 0.9645497296889154 0.44237882954987356 3.5006379349175005 0.23642488462319414 0.6629297853665612 1.251045450139905 1.9680392481574212 3.98420696866744 2.214347152747317 0.32944189056756434 1.0818598100079366 3.4403031341268546 0.4114767526225507 1.7613969425435874 2.6365160374006793 1.2602945601346298 3.0558687085527887 3.3055609103899566 3.5173340778654714 1.6663681346451773 0.09875377125611481 3.162744140267609 3.2649558417842717 2.851865467148027 3.3655327850763324 3.7135246261443844 3.3650542520789797 2.2137684730663887 0.009561670372547657 3.2913003403295424 3.9331150648734963 1.9869334582929348 4.001842553347321 0.08044749949303767 0.5306510260112622 1.2228475371231478 0.8593642326258581 1.6114547790256124 3.6034630795788636 1.519464025818323 3.3438178469591513 1.927863112269789 3.311235822152758 0.0805294409465769 3.260408786773094 3.4157259282202506 1.3258447127444901 2.8059003503408038 3.5846840820277737 1.7656958716698399 1.8052794133008288 1.5196807736388047 2.05995840468658 3.2037513038820884 4.101235509380543 1.2869381229546257 0.5386052724162514 3.7496048419295502 3.2212426320968977 3.6697295910439975 1.6046478889408837 3.0761304400096257 0.720374526025812 1.9109951874715836 0.9585549682499719 3.7545622451522225 2.059105522246115 2.817491572768731 2.1414928300836813 0.5033430037852044 3.8398676357437345 2.171006221221774 1.6492219146636717 1.1156174539651706 3.5572015242517114 1.476442360962041 0.2517982486820923 3.8117646944605483]

[25 30 40 1 74 15 55 85 31 36 9 25 10 90 74 78 27 58 15 12 51 9 14 96 78 2 84 29 47 5 55 57 37 19 2 47 22 90 78 4 57 79 60 83 17 88 11 15 1 90 60 26 47 46 2 9 15 20 62 64 38 4 5 52 45 66 82 28 98 35 63 87 4 53 45 90 68 41 10 88 79 63 28 27 75 11 73 6 36 41]
